c Random generated cnf formula, satisfiable: false
p cnf 10 50
-8 -4 -9 0
3 -8 1 0
-2 8 -10 0
7 6 5 0
-7 -3 -8 0
-5 4 -9 0
9 5 8 0
-10 7 -4 0
-7 1 6 0
9 -4 7 0
-5 -10 -7 0
8 -5 -2 0
7 1 -5 0
4 2 1 0
7 1 -9 0
1 3 6 0
-4 -6 5 0
-4 -8 1 0
-1 -9 10 0
10 6 -7 0
-9 5 -10 0
2 -1 -3 0
9 -2 5 0
-1 -6 -8 0
7 2 -5 0
-6 2 8 0
-8 1 -6 0
-9 8 1 0
4 1 -2 0
-10 -2 -9 0
-7 10 5 0
9 -6 -10 0
7 -4 -5 0
-9 -5 3 0
-2 -4 -1 0
-4 -3 9 0
-1 6 -3 0
5 -6 1 0
7 6 -9 0
-10 -8 5 0
4 -2 3 0
-9 -4 -10 0
8 7 5 0
-9 -1 -6 0
-1 -7 -4 0
3 -7 -9 0
9 2 -10 0
4 -8 -9 0
-7 8 -2 0
6 -4 8 0
